WARNING: for repeatability, setting FPU to use double precision
============================[ Problem Statistics ]=============================
|                                                                             |
|  Number of variables:          7896                                         |
|  Number of clauses:           39560                                         |
|  Parse time:                   0.01 s                                       |
|                                                                             |
============================[ Search Statistics ]==============================
| Conflicts |          ORIGINAL         |          LEARNT          | Progress |
|           |    Vars  Clauses Literals |    Limit  Clauses Lit/Cl |          |
===============================================================================
|       100 |    7896    39560   151018 |    14505      100      6 |  0.000 % |
|       250 |    7896    39560   151018 |    15955      250      8 |  0.000 % |
|       475 |    7896    39560   151018 |    17551      475     13 |  0.000 % |
|       812 |    7896    39560   151018 |    19306      812     16 |  0.000 % |
|      1318 |    7896    39560   151018 |    21237     1318     18 |  0.000 % |
|      2077 |    7896    39560   151018 |    23360     2077     19 |  0.000 % |
|      3216 |    7896    39560   151018 |    25697     3216     20 |  0.000 % |
|      4924 |    7896    39560   151018 |    28266     4924     20 |  0.000 % |
|      7486 |    7896    39560   151018 |    31093     7486     21 |  0.000 % |
|     11330 |    7896    39560   151018 |    34202    11330     22 |  0.000 % |
|     17096 |    7896    39560   151018 |    37623    17096     24 |  0.000 % |
|     25745 |    7896    39560   151018 |    41385    25745     25 |  0.000 % |
|     38719 |    7896    39560   151018 |    45523    38719     25 |  0.000 % |
|     58180 |    7896    39560   151018 |    50076    26278     26 |  0.000 % |
|     87372 |    7896    39560   151018 |    55083    18882     24 |  0.000 % |
|    131161 |    7896    39560   151018 |    60592    22925     22 |  0.000 % |
|    196845 |    7896    39560   151018 |    66651    44046     25 |  0.000 % |
|    295371 |    7896    39560   151018 |    73316    38132     25 |  0.000 % |
|    443160 |    7896    39560   151018 |    80648    69084     27 |  0.000 % |
|    664843 |    7896    39560   151018 |    88713    34352     23 |  0.000 % |
|    997368 |    7896    39560   151018 |    97584    77520     35 |  0.000 % |
|   1496156 |    7896    39560   151018 |   107343    90265     27 |  0.000 % |
|   2244338 |    7896    39560   151018 |   118077    25220     40 |  0.000 % |
|   3366612 |    7896    39560   151018 |   129885    43517     23 |  0.000 % |
===============================================================================
restarts              : 6142
conflicts             : 3577038        (23784 /sec)
decisions             : 7148507        (0.00 % random) (47531 /sec)
propagations          : 704182265      (4682152 /sec)
conflict literals     : 118812265      (15.98 % deleted)
Memory used           : 101.00 MB
CPU time              : 150.397 s

SATISFIABLE
